\ Model _copy
\ LP format - for model browsing. Use MPS format to capture full model detail.
Minimize
 
Subject To
 R0: 14 C0 + 28 C2 + 168 C3 = 14
 R1: 5184 C1 + 2688 C6 = 576
 R2: C0 + 14 C2 = 1
 R3: 168 C2 + 252 C3 + 840 C4 = 84
 R4: 2240 C4 + 2800 C5 + 3360 C6 = 560
 R5: 3456 C1 + 3360 C5 + 4032 C6 = 672
 R6: 840 C3 + 1120 C4 + 2240 C5 = 280
 R9: C0 - C3 - C9 = 0
Bounds
 C0 free
 C1 free
 C2 free
 C3 free
 C4 free
 C5 free
 C6 free
 -infinity <= C9 <= 0
End
